
Log started (V12.8.0.0) Thu Mar 28 13:40:08 2019

New value for deterministic time limit in ticks: 7500

Problem 'tsp_sec_loop.lp' read.
Read time = 0.24 sec. (14.48 ticks)
CPXPARAM_DetTimeLimit                            7500
Tried aggregator 1 time.
Reduced MIP has 653 rows, 96141 columns, and 904589 nonzeros.
Reduced MIP has 96141 binaries, 0 generals, 0 SOSs, and 0 indicators.
Presolve time = 0.25 sec. (234.53 ticks)
Found incumbent of value 1851284.000000 after 0.98 sec. (759.27 ticks)
Tried aggregator 1 time.
Reduced MIP has 653 rows, 96141 columns, and 904589 nonzeros.
Reduced MIP has 96141 binaries, 0 generals, 0 SOSs, and 0 indicators.
Presolve time = 0.32 sec. (289.28 ticks)
Probing time = 0.08 sec. (20.82 ticks)
MIP emphasis: balance optimality and feasibility.
MIP search method: dynamic search.
Parallel mode: deterministic, using up to 4 threads.
Root relaxation solution time = 0.22 sec. (223.22 ticks)

        Nodes                                         Cuts/
   Node  Left     Objective  IInf  Best Integer    Best Bound    ItCnt     Gap

*     0+    0                      1851284.0000        0.0000           100.00%
      0     0   105904.1667    90  1851284.0000   105904.1667      921   94.28%
*     0+    0                       122020.0000   105904.1667            13.21%
      0     0   106276.2060   164   122020.0000      Cuts: 43     1052   12.90%
      0     0   106340.7083   151   122020.0000      Cuts: 17     1089   12.85%
      0     0   106357.2072   196   122020.0000   ZeroHalf: 7     1116   12.84%
*     0+    0                       119746.0000   106357.2072            11.18%
      0     0   106386.3542   196   119746.0000   ZeroHalf: 9     1140   11.16%
      0     0   106399.5785   208   119746.0000   ZeroHalf: 3     1144   11.15%

Cover cuts applied:  1
Zero-half cuts applied:  41
Gomory fractional cuts applied:  12

Root node processing (before b&c):
  Real time             =    7.82 sec. (7510.06 ticks)
Parallel b&c, 4 threads:
  Real time             =    0.00 sec. (0.00 ticks)
  Sync time (average)   =    0.00 sec.
  Wait time (average)   =    0.00 sec.
                          ------------
Total (root+branch&cut) =    7.82 sec. (7510.06 ticks)

Solution pool: 3 solutions saved.

MIP - Deterministic time limit exceeded, integer feasible:  Objective =  1.1974600000e+05
Current MIP best bound =  1.0639957855e+05 (gap = 13346.4, 11.15%)
Solution time =    7.83 sec.  Iterations = 1144  Nodes = 0 (1)
Deterministic time = 7510.34 ticks  (959.71 ticks/sec)

